% Auto-generated by scripts/generate_dzn.py
% problem_type   = regex
% instance       = regex_24
% source_json    = instances_json/1_medium_blowup/regex_24.json
% blowup         = 7.333333333333333
% representation = DFA

mode = 0;

var_count = 22;
Q = 88;
S = 3;
q0 = 1;
F = {61, 62, 63, 64, 65, 66, 67, 68, 69, 70, 71, 72, 73, 74, 75, 76, 77, 78, 79, 80, 81, 82, 83, 84, 85, 86, 87, 88};
d_dfa = array2d(1..88, 1..3, [
  2, 1, 1,
  2, 1, 3,
  2, 4, 1,
  6, 5, 5,
  8, 7, 7,
  8, 7, 9,
  11, 10, 10,
  11, 10, 12,
  11, 13, 10,
  15, 14, 14,
  15, 14, 16,
  15, 17, 14,
  19, 18, 18,
  21, 20, 20,
  21, 20, 22,
  21, 23, 20,
  25, 24, 24,
  27, 26, 26,
  27, 26, 28,
  30, 29, 29,
  30, 29, 31,
  30, 32, 29,
  34, 33, 33,
  36, 35, 35,
  36, 35, 37,
  39, 38, 38,
  39, 38, 40,
  39, 41, 38,
  43, 42, 42,
  43, 42, 44,
  43, 45, 42,
  47, 46, 46,
  49, 48, 48,
  49, 48, 50,
  52, 51, 51,
  52, 51, 53,
  52, 54, 51,
  56, 55, 55,
  56, 55, 57,
  56, 58, 55,
  60, 59, 59,
  62, 61, 61,
  62, 61, 63,
  62, 64, 61,
  66, 65, 65,
  68, 67, 67,
  68, 67, 69,
  71, 70, 70,
  71, 70, 72,
  71, 73, 70,
  75, 74, 74,
  75, 74, 76,
  75, 77, 74,
  79, 78, 78,
  81, 80, 80,
  81, 80, 82,
  81, 83, 80,
  85, 84, 84,
  87, 86, 86,
  87, 86, 88,
  2, 1, 1,
  2, 1, 3,
  2, 4, 1,
  6, 5, 5,
  8, 7, 7,
  8, 7, 9,
  11, 10, 10,
  11, 10, 12,
  11, 13, 10,
  15, 14, 14,
  15, 14, 16,
  15, 17, 14,
  19, 18, 18,
  21, 20, 20,
  21, 20, 22,
  21, 23, 20,
  25, 24, 24,
  27, 26, 26,
  27, 26, 28,
  30, 29, 29,
  30, 29, 31,
  30, 32, 29,
  34, 33, 33,
  36, 35, 35,
  36, 35, 37,
  39, 38, 38,
  39, 38, 40,
  39, 41, 38
]);
d_nfa = array2d(1..88, 1..3, [
  {}, {}, {},
  {}, {}, {},
  {}, {}, {},
  {}, {}, {},
  {}, {}, {},
  {}, {}, {},
  {}, {}, {},
  {}, {}, {},
  {}, {}, {},
  {}, {}, {},
  {}, {}, {},
  {}, {}, {},
  {}, {}, {},
  {}, {}, {},
  {}, {}, {},
  {}, {}, {},
  {}, {}, {},
  {}, {}, {},
  {}, {}, {},
  {}, {}, {},
  {}, {}, {},
  {}, {}, {},
  {}, {}, {},
  {}, {}, {},
  {}, {}, {},
  {}, {}, {},
  {}, {}, {},
  {}, {}, {},
  {}, {}, {},
  {}, {}, {},
  {}, {}, {},
  {}, {}, {},
  {}, {}, {},
  {}, {}, {},
  {}, {}, {},
  {}, {}, {},
  {}, {}, {},
  {}, {}, {},
  {}, {}, {},
  {}, {}, {},
  {}, {}, {},
  {}, {}, {},
  {}, {}, {},
  {}, {}, {},
  {}, {}, {},
  {}, {}, {},
  {}, {}, {},
  {}, {}, {},
  {}, {}, {},
  {}, {}, {},
  {}, {}, {},
  {}, {}, {},
  {}, {}, {},
  {}, {}, {},
  {}, {}, {},
  {}, {}, {},
  {}, {}, {},
  {}, {}, {},
  {}, {}, {},
  {}, {}, {},
  {}, {}, {},
  {}, {}, {},
  {}, {}, {},
  {}, {}, {},
  {}, {}, {},
  {}, {}, {},
  {}, {}, {},
  {}, {}, {},
  {}, {}, {},
  {}, {}, {},
  {}, {}, {},
  {}, {}, {},
  {}, {}, {},
  {}, {}, {},
  {}, {}, {},
  {}, {}, {},
  {}, {}, {},
  {}, {}, {},
  {}, {}, {},
  {}, {}, {},
  {}, {}, {},
  {}, {}, {},
  {}, {}, {},
  {}, {}, {},
  {}, {}, {},
  {}, {}, {},
  {}, {}, {},
  {}, {}, {}
]);
